Route #1: 11 1 2 12 13 28 27 43 32 49 56 68 69 57 44 45 50 33 29 14 3 4 8 9 16 15 21 34 46 47 59 58 63 70 75 89 81 80 88 98 95 99 100 96 90 76 71 82 91 92 83 93 94 84 78 73 72 77 64 60 51 36 35 22 30 17 5 6 7 19 26 20 31 42 41 40 39 38 24 25 10 18 23 37 52 61 53 54 48 62 55 67 87 74 66 65 79 85 86 97
Cost 44540
